
n_res = 8;
rcap = [24, 27, 29, 27, 746, 727, 784, 768];
rtype = [1, 1, 1, 1, 2, 2, 2, 2];
n_tasks = 50;
modes =  [{1, 2, 3}, {4, 5, 6}, {7, 8, 9}, {10, 11, 12}, {13, 14, 15}, {16, 17, 18}, {19, 20, 21}, {22, 23, 24}, {25, 26, 27}, {28, 29, 30}, {31, 32, 33}, {34, 35, 36}, {37, 38, 39}, {40, 41, 42}, {43, 44, 45}, {46, 47, 48}, {49, 50, 51}, {52, 53, 54}, {55, 56, 57}, {58, 59, 60}, {61, 62, 63}, {64, 65, 66}, {67, 68, 69}, {70, 71, 72}, {73, 74, 75}, {76, 77, 78}, {79, 80, 81}, {82, 83, 84}, {85, 86, 87}, {88, 89, 90}, {91, 92, 93}, {94, 95, 96}, {97, 98, 99}, {100, 101, 102}, {103, 104, 105}, {106, 107, 108}, {109, 110, 111}, {112, 113, 114}, {115, 116, 117}, {118, 119, 120}, {121, 122, 123}, {124, 125, 126}, {127, 128, 129}, {130, 131, 132}, {133, 134, 135}, {136, 137, 138}, {139, 140, 141}, {142, 143, 144}, {145, 146, 147}, {148, 149, 150}];
succ =  [{24, 14, 10, 7, 4}, {31, 27, 22, 21, 20, 17, 16, 15}, {31, 27, 25, 22, 21, 18, 17, 15}, {27, 26, 22, 20, 17, 15}, {50, 31, 22, 17, 10}, {50, 37, 31, 29, 27, 21, 17}, {25, 23, 22, 21, 15}, {42, 37, 31, 29, 28, 23, 20}, {50, 42, 37, 30, 29, 23, 21}, {30, 29, 26, 23, 21}, {50, 37, 30, 17}, {50, 37, 35, 33, 31, 29, 26}, {42, 36, 34, 31, 22}, {50, 37, 32, 31, 21}, {48, 42, 35, 33, 30, 29}, {49, 35, 34, 33, 30, 26}, {42, 34, 28, 23}, {50, 49, 46, 41, 37, 36, 34, 32}, {47, 42, 37, 36, 35, 29}, {50, 49, 46, 41, 40, 36, 34, 32}, {49, 45, 41, 36, 35, 34, 33}, {48, 37, 35, 33, 29}, {48, 41, 36, 35, 33, 32}, {49, 42, 41, 40, 34, 32}, {48, 47, 36, 29}, {48, 47, 46, 45, 44, 42, 40, 38, 36}, {49, 46, 40, 36, 32}, {48, 47, 46, 45, 44, 41, 40, 38}, {49, 41, 40, 32}, {47, 46, 44, 41, 38, 36}, {47, 45, 44, 41, 40, 39}, {45, 44, 39, 38}, {46, 40, 39, 38}, {48, 47, 44, 38}, {46, 43}, {39}, {40}, {43}, {43}, {43}, {43}, {43}, {}, {}, {}, {}, {}, {}, {}, {}];
n_opt = 150;
dur = [17, 19, 21, 17, 29, 30, 3, 10, 23, 3, 13, 23, 2, 3, 13, 7, 12, 15, 8, 9, 18, 7, 15, 29, 2, 5, 7, 2, 8, 30, 4, 20, 22, 14, 16, 30, 2, 5, 21, 1, 18, 25, 9, 11, 23, 11, 25, 29, 14, 15, 23, 2, 6, 8, 2, 16, 27, 7, 11, 28, 2, 21, 26, 9, 13, 16, 14, 25, 26, 10, 11, 27, 6, 15, 16, 21, 24, 28, 12, 25, 28, 5, 9, 27, 5, 17, 30, 10, 15, 29, 4, 5, 25, 18, 21, 27, 3, 18, 19, 1, 24, 30, 7, 12, 13, 17, 21, 25, 3, 12, 15, 7, 14, 27, 5, 8, 24, 11, 24, 30, 8, 15, 30, 3, 24, 30, 27, 28, 30, 4, 17, 18, 7, 20, 26, 4, 13, 27, 13, 16, 27, 16, 20, 22, 5, 7, 25, 7, 10, 13];
rreq = [|2, 2, 2, 1, 1, 1, 3, 3, 3, 3, 3, 2, 3, 2, 1, 5, 3, 2, 4, 2, 2, 1, 1, 1, 3, 2, 1, 2, 2, 2, 1, 1, 1, 3, 3, 3, 4, 4, 2, 4, 3, 2, 3, 2, 2, 5, 3, 2, 1, 1, 1, 3, 3, 3, 5, 4, 3, 2, 2, 2, 3, 3, 2, 2, 2, 2, 5, 4, 4, 4, 3, 3, 1, 1, 1, 4, 2, 1, 5, 4, 4, 4, 3, 1, 4, 2, 1, 4, 2, 2, 3, 3, 2, 5, 3, 3, 2, 1, 1, 5, 5, 5, 3, 2, 2, 1, 1, 1, 2, 2, 1, 4, 3, 1, 4, 4, 3, 4, 3, 3, 3, 3, 3, 2, 1, 1, 2, 2, 2, 5, 2, 1, 4, 3, 1, 4, 2, 1, 2, 2, 2, 3, 3, 3, 3, 2, 2, 1, 1, 1
 |4, 4, 4, 2, 2, 2, 5, 5, 5, 4, 3, 1, 1, 1, 1, 2, 2, 1, 4, 4, 4, 4, 3, 2, 3, 2, 2, 4, 4, 4, 5, 4, 3, 1, 1, 1, 4, 3, 3, 5, 2, 1, 5, 4, 4, 3, 2, 1, 3, 2, 2, 4, 3, 2, 4, 2, 2, 2, 2, 2, 4, 4, 4, 3, 2, 2, 2, 1, 1, 4, 3, 2, 4, 2, 2, 5, 3, 3, 4, 3, 2, 2, 2, 2, 4, 4, 4, 4, 3, 3, 3, 2, 1, 2, 2, 2, 4, 2, 2, 4, 3, 3, 5, 3, 2, 5, 3, 2, 5, 4, 4, 4, 4, 4, 1, 1, 1, 5, 4, 4, 5, 4, 4, 2, 2, 2, 5, 5, 5, 4, 4, 4, 5, 3, 2, 4, 3, 3, 1, 1, 1, 5, 3, 1, 3, 1, 1, 2, 2, 1
 |3, 3, 2, 4, 2, 1, 4, 4, 4, 3, 2, 2, 5, 4, 4, 3, 2, 2, 5, 4, 3, 2, 2, 2, 3, 2, 2, 4, 3, 3, 4, 2, 1, 3, 3, 2, 3, 2, 1, 4, 2, 1, 4, 2, 2, 3, 3, 3, 4, 2, 1, 4, 4, 4, 4, 3, 3, 4, 4, 3, 3, 3, 1, 2, 2, 1, 2, 1, 1, 1, 1, 1, 3, 2, 2, 3, 2, 2, 4, 4, 4, 5, 4, 3, 3, 2, 1, 3, 2, 2, 5, 2, 2, 3, 2, 2, 2, 2, 2, 4, 3, 3, 4, 4, 4, 3, 3, 3, 3, 3, 2, 5, 2, 1, 5, 4, 4, 1, 1, 1, 2, 1, 1, 5, 4, 2, 3, 3, 1, 3, 2, 1, 2, 1, 1, 4, 2, 1, 2, 1, 1, 2, 1, 1, 4, 4, 4, 3, 2, 2
 |1, 1, 1, 5, 5, 5, 3, 3, 1, 2, 1, 1, 3, 3, 3, 4, 4, 4, 4, 3, 2, 3, 2, 2, 4, 4, 4, 2, 1, 1, 2, 1, 1, 1, 1, 1, 4, 4, 4, 4, 2, 2, 4, 3, 2, 2, 2, 2, 5, 4, 2, 5, 4, 4, 5, 5, 5, 2, 1, 1, 2, 2, 2, 4, 4, 4, 2, 2, 2, 4, 4, 4, 5, 4, 3, 2, 2, 2, 3, 2, 1, 4, 4, 4, 4, 4, 4, 4, 4, 4, 4, 4, 2, 3, 2, 1, 4, 4, 3, 2, 2, 2, 4, 3, 1, 2, 2, 1, 4, 4, 3, 4, 3, 2, 2, 2, 2, 3, 3, 3, 4, 4, 2, 4, 4, 4, 5, 4, 2, 5, 4, 4, 2, 1, 1, 1, 1, 1, 4, 4, 4, 5, 3, 3, 4, 3, 3, 4, 4, 4
 |29, 27, 25, 22, 21, 17, 28, 23, 22, 25, 23, 22, 15, 9, 4, 14, 12, 6, 20, 15, 11, 18, 16, 13, 14, 10, 7, 26, 12, 4, 13, 13, 13, 18, 10, 6, 23, 18, 11, 14, 12, 9, 9, 6, 4, 16, 14, 12, 26, 14, 13, 29, 18, 4, 17, 15, 15, 20, 18, 15, 21, 21, 20, 9, 7, 4, 18, 15, 14, 19, 12, 10, 26, 19, 12, 26, 26, 25, 27, 26, 26, 26, 22, 21, 24, 17, 12, 8, 7, 7, 10, 6, 5, 7, 5, 3, 15, 11, 5, 16, 14, 11, 9, 7, 5, 12, 9, 1, 11, 11, 11, 19, 16, 14, 26, 24, 22, 7, 4, 1, 12, 11, 10, 15, 10, 7, 14, 9, 7, 29, 29, 28, 7, 6, 6, 15, 14, 14, 15, 14, 13, 27, 20, 19, 30, 16, 11, 11, 10, 8
 |16, 12, 12, 17, 16, 16, 22, 20, 15, 26, 16, 8, 19, 17, 16, 25, 20, 13, 6, 6, 5, 11, 11, 11, 14, 8, 5, 8, 5, 4, 21, 21, 20, 24, 18, 10, 3, 3, 3, 22, 13, 8, 23, 21, 21, 18, 13, 11, 14, 13, 11, 17, 15, 15, 3, 3, 2, 19, 15, 9, 21, 20, 18, 22, 19, 15, 24, 18, 12, 22, 21, 20, 26, 22, 18, 23, 19, 17, 9, 8, 7, 18, 10, 3, 23, 19, 19, 14, 9, 7, 23, 17, 12, 30, 28, 28, 21, 20, 20, 7, 5, 2, 14, 10, 5, 22, 14, 4, 25, 18, 11, 10, 7, 6, 11, 4, 4, 20, 19, 19, 18, 17, 9, 20, 19, 12, 14, 13, 13, 20, 20, 18, 11, 7, 4, 16, 15, 15, 21, 20, 12, 14, 12, 12, 17, 11, 9, 19, 17, 6
 |16, 14, 6, 23, 16, 6, 28, 27, 27, 23, 18, 16, 19, 18, 17, 27, 20, 14, 21, 16, 11, 22, 21, 21, 5, 3, 2, 10, 6, 3, 14, 10, 8, 21, 17, 17, 20, 17, 14, 27, 20, 9, 12, 7, 3, 13, 9, 4, 8, 5, 3, 20, 19, 16, 25, 23, 18, 23, 17, 7, 13, 12, 11, 25, 25, 20, 13, 12, 12, 11, 8, 6, 7, 3, 2, 19, 15, 6, 14, 10, 5, 21, 18, 12, 24, 19, 9, 23, 23, 23, 22, 14, 9, 20, 20, 18, 29, 25, 22, 19, 10, 6, 20, 20, 18, 28, 25, 20, 29, 26, 22, 19, 12, 5, 16, 12, 10, 29, 21, 14, 15, 13, 10, 14, 12, 10, 23, 21, 21, 22, 15, 10, 12, 10, 9, 19, 13, 8, 22, 18, 14, 21, 16, 9, 27, 16, 13, 22, 19, 17
 |15, 11, 7, 8, 4, 2, 3, 3, 3, 28, 24, 19, 30, 28, 28, 10, 9, 8, 27, 19, 17, 26, 26, 25, 23, 22, 21, 20, 9, 7, 30, 27, 26, 17, 14, 11, 24, 20, 20, 22, 13, 7, 17, 16, 16, 25, 21, 18, 10, 8, 8, 24, 22, 20, 7, 6, 6, 26, 25, 22, 12, 8, 8, 15, 13, 12, 20, 14, 6, 24, 23, 21, 12, 10, 8, 23, 20, 17, 23, 18, 9, 8, 7, 7, 13, 9, 8, 24, 20, 11, 24, 19, 16, 28, 24, 20, 27, 24, 20, 6, 5, 4, 18, 13, 4, 13, 10, 9, 25, 18, 4, 22, 22, 17, 18, 13, 11, 9, 9, 7, 14, 13, 7, 16, 14, 14, 19, 15, 13, 19, 13, 7, 26, 24, 19, 22, 19, 14, 12, 9, 8, 17, 14, 13, 14, 12, 7, 6, 5, 4|];